SAT
-1 -100 -76 -99 -97 -98 -96 -95 -94 -32 -77 -93 92 -70 58 87 37 89 81 -10 18 -35 20 84 2 83 8 -36 48 -17 -24 -82 -12 28 -73 -63 56 71 30 66 6 85 90 45 57 29 88 15 44 74 -14 31 -61 33 11 59 86 -55 64 -41 38 -51 -78 3 -47 80 -62 -34 46 65 -50 -13 9 68 -23 -4 -43 -16 -53 -27 -22 -79 54 -72 -67 -60 5 -52 -69 -26 25 91 75 -7 39 49 40 -42 -21 19 0
